% demand
num_movements = 35;
loading_factor = [1750, 1250, 1100, 1850, 1000, 1550, 1050, 1500, 2000, 1650, 900, 1150, 1050, 1900, 1300, 800, 900, 1100, 1050, 1650, 2000, 2000, 1000, 1600, 1000, 1600, 1050, 900, 1950, 850, 1100, 1000, 1650, 1950, 800];
pickup_time = [0, 0, 0, 0, 0, 0, 0, 1, 1, 2, 2, 2, 2, 2, 2, 2, 2, 3, 4, 7, 8, 8, 8, 8, 8, 9, 10, 10, 10, 10, 11, 11, 11, 12, 12];
delivery_time = [2, 1, 2, 1, 1, 1, 1, 2, 2, 5, 5, 7, 7, 5, 6, 6, 3, 7, 5, 11, 10, 10, 10, 10, 10, 13, 11, 11, 11, 11, 13, 12, 13, 13, 13];

% transporter definition
total_capacity = 11000;
num_decks = 4;
capacity = [3000, 3000, 1000, 4000];

% ways out of decks
num_ways_out = 2;
paths_out = array3d(decks, ways_out, decks, [
% ways out of deck d1
2, 4, 0, 0, 3, 4, 0, 0, 

% ways out of deck d2
4, 0, 0, 0, 0, 0, 0, 0,	

% ways out of deck d3
4, 0, 0, 0, 0, 0, 0, 0,	

% ways out of deck d4
0, 0, 0, 0,	0, 0, 0, 0,	

]);

